# Solution for model r5_t18_m1_6 Batch Number: 4
# Finished Task: 17 / 18
# Makespan: 748.0, Total Distance: 398.0, Total Time: 0.7861
# R O S F Batch
0 0 20 0.0 0.0 -1
1 1 22 0.0 0.0 -1
2 2 16 0.0 0.0 -1
3 3 8 0.0 0.0 -1
4 4 17 0.0 0.0 -1
5 3 14 296.0 319.0 0
6 -1 -1 -1.0 -1.0 2
7 4 19 504.0 531.0 2
8 3 5 243.0 270.0 0
9 3 -1 727.0 748.0 3
10 0 -1 631.0 656.0 3
11 1 -1 631.0 657.0 3
12 2 21 576.0 604.0 1
13 3 18 440.0 466.0 2
14 3 13 332.0 370.0 0
15 3 9 657.0 692.0 3
16 2 12 384.0 412.0 0
17 4 7 270.0 300.0 0
18 3 15 478.0 504.0 2
19 4 -1 604.0 631.0 3
20 0 10 572.0 604.0 0
21 2 -1 633.0 655.0 2
22 1 11 358.0 384.0 0
